proyfinal/src/viki/013/experimentInOfficeAgust.take6.output/a87602f7-ca78-4a07-81ba-d60d635dce66.als.dat
{'cnf.clauses': '118081',
 'cnf.totvars': '69608',
 'conflict literals': '17',
 'conflicts': '11',
 'decisions': '3342',
 'memused.mb': '16.74',
 'outcome': 'UNSAT',
 'propagations': '25125',
 'restarts': '1',
 'solver.msecs': 37,
 'task.msecs': 95}
