proyfinal/src/viki/013/experimentInOfficeAgust.take6.output/a87602f7-ca78-4a07-81ba-d60d635dce66.als.out
Reading from standard input... Use '--help' for help.
============================[ Problem Statistics ]=============================
|                                                                             |
|  Number of variables:         69608                                         |
|  Number of clauses:          118081                                         |
|  Parse time:                   0.03 s                                       |
|                                                                             |
============================[ Search Statistics ]==============================
| Conflicts |          ORIGINAL         |          LEARNT          | Progress |
|           |    Vars  Clauses Literals |    Limit  Clauses Lit/Cl |          |
===============================================================================
===============================================================================
restarts              : 1
conflicts             : 11             (291 /sec)
decisions             : 3342           (0.00 % random) (88280 /sec)
propagations          : 25125          (663682 /sec)
conflict literals     : 17             (0.00 % deleted)
Memory used           : 16.74 MB
CPU time              : 0.037857 s

UNSATISFIABLE
